     Program PWSCF v.6.0 (svn rev. 13079) starts on 30May2020 at 18:54:41

     Current dimensions of program PWSCF are:
     Max number of different atomic species (ntypx) = 10
     Max number of k-points (npk) =  40000
     Max angular momentum in pseudopotentials (lmaxx) =  3

     Subspace diagonalization in iterative solution of the eigenvalue problem:
     a serial algorithm will be used

     Message from routine setup:
     no reason to have ecutrho>4*ecutwfc

     bravais-lattice index     =            2
     lattice parameter (alat)  =      10.2625  a.u.
     unit-cell volume          =     270.2088 (a.u.)^3
     number of atoms/cell      =            2
     number of atomic types    =            1
     number of electrons       =         8.00
     number of Kohn-Sham states=            4
     kinetic-energy cutoff     =      40.0000  Ry
     charge density cutoff     =     480.0000  Ry
     convergence threshold     =      1.0E-08
     mixing beta               =       0.7000
     number of iterations used =            8  plain     mixing
     Exchange-correlation      =  SLA  PW   PBE  PBE ( 1  4  3  4 0 0)
     nstep                     =           50

     celldm(1)=  10.262500  celldm(2)=   0.000000  celldm(3)=   0.000000
     celldm(4)=   0.000000  celldm(5)=   0.000000  celldm(6)=   0.000000

     crystal axes: (cart. coord. in units of alat)
               a(1) = (  -0.500000   0.000000   0.500000 )
               a(2) = (   0.000000   0.500000   0.500000 )
               a(3) = (  -0.500000   0.500000   0.000000 )

     reciprocal axes: (cart. coord. in units 2 pi/alat)
               b(1) = ( -1.000000 -1.000000  1.000000 )
               b(2) = (  1.000000  1.000000  1.000000 )
               b(3) = ( -1.000000  1.000000 -1.000000 )

     PseudoPot. # 1 for Si read from file:
     ./Si.pbe-rrkj.UPF
     MD5 check sum: 8af8e7039d270e0118f3b3651cf51d3d
     Pseudo is Norm-conserving, Zval =  4.0
     Generated by new atomic code, or converted to UPF format
     Using radial grid of  883 points,  3 beta functions with:
                l(1) =   0
                l(2) =   0
                l(3) =   1

     atomic species   valence    mass     pseudopotential
        Si             4.00    28.08550     Si( 1.00)

     24 Sym. Ops. (no inversion) found
          (note: 24 additional sym.ops. were found but ignored
           their fractional translations are incommensurate with FFT grid)

   Cartesian axes

     site n.     atom                  positions (alat units)
         1           Si  tau(   1) = (   0.0000000   0.0000000   0.0000000  )
         2           Si  tau(   2) = (   0.2500000   0.2500000   0.2500000  )

     number of k points=    10
                       cart. coord. in units 2pi/alat
        k(    1) = (  -0.1250000   0.1250000   0.1250000), wk =   0.0625000
        k(    2) = (  -0.3750000   0.3750000  -0.1250000), wk =   0.1875000
        k(    3) = (   0.3750000  -0.3750000   0.6250000), wk =   0.1875000
        k(    4) = (   0.1250000  -0.1250000   0.3750000), wk =   0.1875000
        k(    5) = (  -0.1250000   0.6250000   0.1250000), wk =   0.1875000
        k(    6) = (   0.6250000  -0.1250000   0.8750000), wk =   0.3750000
        k(    7) = (   0.3750000   0.1250000   0.6250000), wk =   0.3750000
        k(    8) = (  -0.1250000  -0.8750000   0.1250000), wk =   0.1875000
        k(    9) = (  -0.3750000   0.3750000   0.3750000), wk =   0.0625000
        k(   10) = (   0.3750000  -0.3750000   1.1250000), wk =   0.1875000

     Initial potential from superposition of free atoms

     starting charge    7.99889, renormalised to    8.00000
     Starting wfc are    8 randomized atomic wfcs

     Self-consistent Calculation

     iteration #  1     ecut=    40.00 Ry     beta=0.70
     Davidson diagonalization with overlap
     ethr =  1.00E-02,  avg # of iterations =  2.0

     Threshold (ethr) on eigenvalues was too large:
     Diagonalizing with lowered threshold

     Davidson diagonalization with overlap
     ethr =  7.22E-04,  avg # of iterations =  1.3

     total energy              =     -15.73863188 Ry
     Harris-Foulkes estimate   =     -15.75222788 Ry
     estimated scf accuracy    <       0.05771763 Ry

[...]

     End of self-consistent calculation

          k =-0.1250 0.1250 0.1250 (  1173 PWs)   bands (ev):

    -5.4695   4.6491   5.9400   5.9400

[...]

          k = 0.3750-0.3750 0.6250 (  1160 PWs)   bands (ev):

[...]

     highest occupied level (ev):     5.9400

!    total energy              =     -15.74121234 Ry
     Harris-Foulkes estimate   =     -15.74121235 Ry
     estimated scf accuracy    <          6.5E-09 Ry

     The total energy is the sum of the following terms:

     one-electron contribution =       4.77320464 Ry
     hartree contribution      =       1.09507531 Ry
     xc contribution           =      -4.81265552 Ry
     ewald contribution        =     -16.79683678 Ry

     convergence has been achieved in   6 iterations

     Forces acting on atoms (Ry/au):

     atom    1 type  1   force =     0.00000000    0.00000000    0.00000000
     atom    2 type  1   force =     0.00000000    0.00000000    0.00000000

     Total force =     0.000000     Total SCF correction =     0.000000

     entering subroutine stress ...

          total   stress  (Ry/bohr**3)                   (kbar)     P=   22.39
   0.00015223   0.00000000   0.00000000         22.39      0.00      0.00
   0.00000000   0.00015223   0.00000000          0.00     22.39      0.00
   0.00000000   0.00000000   0.00015223          0.00      0.00     22.39

     BFGS Geometry Optimization

     number of scf cycles    =   1
     number of bfgs steps    =   0

     enthalpy new            =     -15.7412123443 Ry

     new trust radius        =       0.0125118399 bohr
     new conv_thr            =       0.0000000100 Ry

     new unit-cell volume =    273.30562 a.u.^3 (    40.49971 Ang^3 )

CELL_PARAMETERS (alat= 10.26250000)
  -0.501902880  -0.000000000   0.501902880
   0.000000000   0.501902880   0.501902880
  -0.501902880   0.501902880   0.000000000

ATOMIC_POSITIONS (alat)
Si       0.000000000   0.000000000   0.000000000
Si       0.250951440   0.250951440   0.250951440

     Writing output data file si.save
     NEW-OLD atomic charge density approx. for the potential
     extrapolated charge    8.09063, renormalised to    8.00000

[...]

     enthalpy old            =     -15.7412123443 Ry
     enthalpy new            =     -15.7415691885 Ry

     CASE: enthalpy_new < enthalpy_old

[...]

     number of scf cycles    =   3
     number of bfgs steps    =   2

     enthalpy old            =     -15.7415691885 Ry
     enthalpy new            =     -15.7417094496 Ry

     CASE: enthalpy_new < enthalpy_old

     new trust radius        =       0.0006100522 bohr
     new conv_thr            =            1.0E-10 Ry

     new unit-cell volume =    276.89159 a.u.^3 (    41.03110 Ang^3 )

[...]

ATOMIC_POSITIONS (alat)
Si      -0.000000000  -0.000000000   0.000000000
Si       0.252044230   0.252044230   0.252044230

     Writing output data file si.save
     NEW-OLD atomic charge density approx. for the potential
     extrapolated charge    8.00440, renormalised to    8.00000

[...]

     Threshold (ethr) on eigenvalues was too large:
     Diagonalizing with lowered threshold

     Davidson diagonalization with overlap
     ethr =  1.29E-09,  avg # of iterations =  3.0

[...]

     bfgs converged in   4 scf cycles and   3 bfgs steps
     (criteria: energy <  1.0E-04, force <  1.0E-05, cell <  5.0E-01)

     End of BFGS Geometry Optimization

     Final enthalpy =     -15.7417097071 Ry
Begin final coordinates
     new unit-cell volume =    276.89159 a.u.^3 (    41.03110 Ang^3 )

CELL_PARAMETERS (alat= 10.26250000)
  -0.504088460  -0.000000000   0.504088460
   0.000000000   0.504088460   0.504088460
  -0.504088460   0.504088460  -0.000000000

ATOMIC_POSITIONS (alat)
Si      -0.000000000  -0.000000000   0.000000000
Si       0.252044230   0.252044230   0.252044230
End final coordinates

     A final scf calculation at the relaxed structure.
     The G-vectors are recalculated for the final unit cell
     Results may differ from those at the preceding step.

   Info: using nr1, nr2, nr3 values from input

   Info: using nr1, nr2, nr3 values from input

     bravais-lattice index     =            2
     lattice parameter (alat)  =      10.2625  a.u.
     unit-cell volume          =     276.8916 (a.u.)^3
     number of atoms/cell      =            2
     number of atomic types    =            1
     number of electrons       =         8.00
     number of Kohn-Sham states=            4
     kinetic-energy cutoff     =      40.0000  Ry
     charge density cutoff     =     480.0000  Ry
     convergence threshold     =      1.0E-10
     mixing beta               =       0.7000
     number of iterations used =            8  plain     mixing
     Exchange-correlation      =  SLA  PW   PBE  PBE ( 1  4  3  4 0 0)

     celldm(1)=  10.262500  celldm(2)=   0.000000  celldm(3)=   0.000000
     celldm(4)=   0.000000  celldm(5)=   0.000000  celldm(6)=   0.000000

     crystal axes: (cart. coord. in units of alat)
               a(1) = (  -0.504088  -0.000000   0.504088 )
               a(2) = (   0.000000   0.504088   0.504088 )
               a(3) = (  -0.504088   0.504088  -0.000000 )

     reciprocal axes: (cart. coord. in units 2 pi/alat)
               b(1) = ( -0.991889 -0.991889  0.991889 )
               b(2) = (  0.991889  0.991889  0.991889 )
               b(3) = ( -0.991889  0.991889 -0.991889 )

     PseudoPot. # 1 for Si read from file:
     ./Si.pbe-rrkj.UPF
     MD5 check sum: 8af8e7039d270e0118f3b3651cf51d3d
     Pseudo is Norm-conserving, Zval =  4.0
     Generated by new atomic code, or converted to UPF format
     Using radial grid of  883 points,  3 beta functions with:
                l(1) =   0
                l(2) =   0
                l(3) =   1

     atomic species   valence    mass     pseudopotential
        Si             4.00    28.08550     Si( 1.00)

     24 Sym. Ops. (no inversion) found
          (note: 24 additional sym.ops. were found but ignored
           their fractional translations are incommensurate with FFT grid)

   Cartesian axes

     site n.     atom                  positions (alat units)
         1           Si  tau(   1) = (  -0.0000000  -0.0000000   0.0000000  )
         2           Si  tau(   2) = (   0.2520442   0.2520442   0.2520442  )

     number of k points=    10
                       cart. coord. in units 2pi/alat
        k(    1) = (  -0.1239862   0.1239862   0.1239862), wk =   0.0625000
        k(    2) = (  -0.3719585   0.3719585  -0.1239862), wk =   0.1875000
        k(    3) = (   0.3719585  -0.3719585   0.6199309), wk =   0.1875000
        k(    4) = (   0.1239862  -0.1239862   0.3719585), wk =   0.1875000
        k(    5) = (  -0.1239862   0.6199309   0.1239862), wk =   0.1875000
        k(    6) = (   0.6199309  -0.1239862   0.8679032), wk =   0.3750000
        k(    7) = (   0.3719585   0.1239862   0.6199309), wk =   0.3750000
        k(    8) = (  -0.1239862  -0.8679032   0.1239862), wk =   0.1875000
        k(    9) = (  -0.3719585   0.3719585   0.3719585), wk =   0.0625000
        k(   10) = (   0.3719585  -0.3719585   1.1158756), wk =   0.1875000

     Initial potential from superposition of free atoms

     starting charge    7.99889, renormalised to    8.00000
     Starting wfc are    8 randomized atomic wfcs

     Writing output data file si.save

     Self-consistent Calculation

[...]

     total energy              =     -15.74171091 Ry
     Harris-Foulkes estimate   =     -15.74171091 Ry
     estimated scf accuracy    <          1.7E-10 Ry

     iteration #  8     ecut=    40.00 Ry     beta=0.70
     Davidson diagonalization with overlap
     ethr =  2.13E-12,  avg # of iterations =  2.0

     End of self-consistent calculation

[...]

          k =-0.3720 0.3720 0.3720 (  1179 PWs)   bands (ev):

[...]

          k = 0.3720-0.3720 1.1159 (  1175 PWs)   bands (ev):

    -2.9075  -0.5452   2.0905   4.1362

     highest occupied level (ev):     5.6953

!    total energy              =     -15.74171091 Ry
     Harris-Foulkes estimate   =     -15.74171091 Ry
     estimated scf accuracy    <          1.1E-12 Ry

     The total energy is the sum of the following terms:

     one-electron contribution =       4.58970368 Ry
     hartree contribution      =       1.11608624 Ry
     xc contribution           =      -4.78689649 Ry
     ewald contribution        =     -16.66060434 Ry

     convergence has been achieved in   8 iterations

     Forces acting on atoms (Ry/au):

     atom    1 type  1   force =     0.00000000   -0.00000000    0.00000000
     atom    2 type  1   force =    -0.00000000    0.00000000   -0.00000000

     Total force =     0.000000     Total SCF correction =     0.000000

     entering subroutine stress ...

          total   stress  (Ry/bohr**3)                   (kbar)     P=    0.01
   0.00000009  -0.00000000   0.00000000          0.01     -0.00      0.00
   0.00000000   0.00000009   0.00000000          0.00      0.01      0.00
  -0.00000000   0.00000000   0.00000009         -0.00      0.00      0.01

     Writing output data file si.save

     General routines

     Parallel routines

   This run was terminated on:  18:55:28  30May2020

   JOB DONE.